# 81597
param n := 30;
param s := 1;
set E :=  (0,20) (0,28) (1,6) (2,23) (2,26) (3,22) (4,18) (5,16) (6,16) (6,19) (6,23) (6,27) (6,28) (7,22) (8,27) (9,22) (9,26) (10,11) (10,26) (12,17) (13,17) (14,15) (14,21) (16,22) (17,18) (17,29) (21,27) (22,25) (22,29) (24,28);
